multiobj/instances/uniform/Ter.6.2.0.80.1.in
6 2
0 598 743 1 484 832 
598 0 703 248 94 391 
743 703 0 593 298 516 
1 248 593 0 664 813 
484 94 298 664 0 822 
832 391 516 813 822 0 
0 409 746 213 298 355 
409 0 116 285 96 179 
746 116 0 363 683 614 
213 285 363 0 906 596 
298 96 683 906 0 71 
355 179 614 596 71 0 
0 414 758 110 267 442 
414 0 149 405 69 61 
758 149 0 321 709 657 
110 405 321 0 940 555 
267 69 709 940 0 84 
442 61 657 555 84 0 
