multiobj/solutions/Ter.6.2.0.80.1.out
1 2
2 5 4 3 0 1 
4656100 4707434 
